#######################################
### Exact MIP solver for the HHCRSP ###
#######################################
-- Instance file: ../instances-HHCRSP/InstanzCPLEX_HCSRP_75_9.txt
-- Max threads: 1
-- Time limit: 30 seconds
-- Use initial solution: No
Instance: Skills statistics exported.
Trivial flow violations prevented generating 23077 variables.
Model exported.
SKIP_OPT flag set. Exiting.

Welcome to IBM(R) ILOG(R) CPLEX(R) Interactive Optimizer 20.1.0.0
  with Simplex, Mixed Integer & Barrier Optimizers
5725-A06 5725-A29 5724-Y48 5724-Y49 5724-Y54 5724-Y55 5655-Y21
Copyright IBM Corp. 1988, 2020.  All Rights Reserved.

Type 'help' for a list of available commands.
Type 'help' followed by a command name for more
information on commands.

CPLEX> Problem 'model.lp' read.
Read time = 0.24 sec. (15.28 ticks)
CPLEX> Problem changed to LP.
CPLEX> Version identifier: 20.1.0.0 | 2020-11-10 | 9bedb6d68
Parallel mode: deterministic, using up to 8 threads for concurrent optimization:
 * Starting dual Simplex on 1 thread...
 * Starting Barrier on 6 threads...
 * Starting primal Simplex on 1 thread...
Tried aggregator 1 time.
LP Presolve eliminated 21784 rows and 809 columns.
Reduced LP has 29427 rows, 23009 columns, and 428514 nonzeros.
Presolve time = 0.20 sec. (133.99 ticks)
Symmetry aggregator did 30921 additional substitutions.

Iteration log . . .
Iteration:     1   Dual objective     =             0.000000
Iteration:   331   Dual objective     =           237.849481

Dual crossover.
  Dual:  Fixing 263 variables.
      262 DMoves:  Infeasibility  6.00630826e-14  Objective  2.38124121e+02
        0 DMoves:  Infeasibility  1.80966522e-14  Objective  2.38124121e+02
  Dual:  Pushed 12, exchanged 251.
  Primal:  Fixing 98 variables.
       97 PMoves:  Infeasibility  0.00000000e+00  Objective  2.38124121e+02
        0 PMoves:  Infeasibility  2.99760217e-15  Objective  2.38124121e+02
  Primal:  Pushed 58, exchanged 40.

Dual simplex solved model.


Dual simplex - Optimal:  Objective =  2.3812412113e+02
Solution time =    0.30 sec.  Iterations = 339 (0)
Deterministic time = 263.03 ticks  (867.16 ticks/sec)

CPLEX> Dual simplex - Optimal:  Objective =  2.3812412113e+02
CPLEX> 